experiments/scripts/extractfix/binutils/CVE-2018-10372/components/num.smt2
(declare-const rvalue_num (_ BitVec 32))
(declare-const lvalue_num (_ BitVec 32))
(declare-const rreturn (_ BitVec 32))
(declare-const lreturn (_ BitVec 32))
(assert (and (= rreturn rvalue_num) (= lreturn lvalue_num)))